NAME: random-93-6786
TYPE: TSP
COMMENT: size=93 seed=6786
DIMENSION: 188
EDGE_WEIGHT_TYPE: EUC_2D
NODE_COORD_SECTION
+0 302 590
-0 302 590
+1 75 997
-1 191 26
+2 455 0
-2 346 662
+3 926 614
-3 568 40
+4 584 350
-4 393 941
+5 207 814
-5 862 891
+6 86 313
-6 86 769
+7 542 884
-7 723 952
+8 125 528
-8 895 669
+9 923 63
-9 19 393
+10 690 643
-10 657 632
+11 823 599
-11 166 585
+12 534 835
-12 739 331
+13 877 329
-13 309 677
+14 717 179
-14 237 488
+15 206 795
-15 73 756
+16 921 714
-16 440 783
+17 351 838
-17 369 984
+18 750 171
-18 572 107
+19 423 963
-19 1 612
+20 191 934
-20 165 649
+21 885 286
-21 118 10
+22 532 465
-22 214 212
+23 423 751
-23 955 96
+24 764 512
-24 199 938
+25 824 817
-25 603 938
+26 861 675
-26 207 114
+27 62 390
-27 173 747
+28 909 82
-28 830 270
+29 264 993
-29 898 237
+30 161 441
-30 944 571
+31 716 896
-31 310 264
+32 847 494
-32 119 562
+33 512 591
-33 16 49
+34 293 985
-34 758 700
+35 152 665
-35 290 567
+36 392 809
-36 626 743
+37 940 911
-37 236 941
+38 485 49
-38 442 588
+39 381 267
-39 284 533
+40 71 965
-40 291 7
+41 844 538
-41 502 323
+42 113 476
-42 806 214
+43 943 368
-43 530 827
+44 401 322
-44 520 759
+45 573 919
-45 409 320
+46 108 990
-46 539 561
+47 719 993
-47 725 697
+48 832 281
-48 787 732
+49 627 75
-49 987 860
+50 59 915
-50 342 284
+51 840 529
-51 964 908
+52 287 619
-52 947 586
+53 508 116
-53 326 14
+54 937 604
-54 795 787
+55 546 634
-55 902 962
+56 735 955
-56 54 850
+57 978 246
-57 267 927
+58 807 656
-58 198 843
+59 988 968
-59 824 110
+60 773 629
-60 746 685
+61 299 127
-61 676 714
+62 848 412
-62 796 233
+63 279 697
-63 931 716
+64 301 720
-64 742 279
+65 264 69
-65 347 42
+66 146 294
-66 647 857
+67 432 584
-67 895 440
+68 885 794
-68 345 473
+69 991 951
-69 998 542
+70 684 660
-70 697 658
+71 712 852
-71 453 543
+72 642 14
-72 487 104
+73 170 623
-73 847 319
+74 842 463
-74 949 65
+75 230 541
-75 859 870
+76 599 811
-76 440 549
+77 973 816
-77 252 748
+78 376 206
-78 569 886
+79 12 87
-79 537 65
+80 588 916
-80 480 358
+81 974 790
-81 662 312
+82 161 987
-82 822 914
+83 773 240
-83 225 943
+84 579 3
-84 867 561
+85 254 344
-85 541 388
+86 625 151
-86 478 623
+87 756 374
-87 495 515
+88 376 437
-88 226 608
+89 693 359
-89 622 881
+90 849 825
-90 342 537
+91 552 546
-91 719 233
+92 392 789
-92 55 434
+93 960 207
-93 958 115
PRECEDENCE_SECTION
+0 -0
+1 -1
+2 -2
+3 -3
+4 -4
+5 -5
+6 -6
+7 -7
+8 -8
+9 -9
+10 -10
+11 -11
+12 -12
+13 -13
+14 -14
+15 -15
+16 -16
+17 -17
+18 -18
+19 -19
+20 -20
+21 -21
+22 -22
+23 -23
+24 -24
+25 -25
+26 -26
+27 -27
+28 -28
+29 -29
+30 -30
+31 -31
+32 -32
+33 -33
+34 -34
+35 -35
+36 -36
+37 -37
+38 -38
+39 -39
+40 -40
+41 -41
+42 -42
+43 -43
+44 -44
+45 -45
+46 -46
+47 -47
+48 -48
+49 -49
+50 -50
+51 -51
+52 -52
+53 -53
+54 -54
+55 -55
+56 -56
+57 -57
+58 -58
+59 -59
+60 -60
+61 -61
+62 -62
+63 -63
+64 -64
+65 -65
+66 -66
+67 -67
+68 -68
+69 -69
+70 -70
+71 -71
+72 -72
+73 -73
+74 -74
+75 -75
+76 -76
+77 -77
+78 -78
+79 -79
+80 -80
+81 -81
+82 -82
+83 -83
+84 -84
+85 -85
+86 -86
+87 -87
+88 -88
+89 -89
+90 -90
+91 -91
+92 -92
+93 -93
EOF
